! Native-XTB2 Engrad 
%pal nprocs 1 end
%maxcore 1000 
*xyz 0 1 
O   -0.010326392654650933 0.031131167510078276 -0.004994190510926384
H   0.7662283408744105 -0.4409384097325734 0.304004799180606
H   -0.6023137361967317 -0.053217989914971175 0.7838377982771476
*
